Grasp exp. instance_n_20_m_5_id_4.lp tipoLifted 0 szPool 1 nIteration 20 alpha 1 
Academic license - for non-commercial use only
Read LP format model from file ../input/instancesGenerated/instance_n_20_m_5_id_4.lp
Reading time = 0.00 seconds
: 5 rows, 20 columns, 100 nonzeros
Optimize a model with 5 rows, 20 columns and 100 nonzeros
Variable types: 0 continuous, 20 integer (20 binary)
Coefficient statistics:
  Matrix range     [1e+00, 1e+01]
  Objective range  [1e+00, 1e+01]
  Bounds range     [1e+00, 1e+00]
  RHS range        [5e+01, 6e+01]
Found heuristic solution: objective 48.0000000

Explored 0 nodes (0 simplex iterations) in 0.00 seconds
Thread count was 1 (of 8 available processors)

Solution count 1: 48 
No other solutions better than 0

Solution limit reached
Best objective 4.800000000000e+01, best bound -, gap -
C_1:	 3.00 x_1  = 0.000000 + 1.00 x_2  = 1.000000 + 5.00 x_3  = 0.000000 + 2.00 x_4  = 0.000000 + 6.00 x_5  = 1.000000 + 4.00 x_6  = 0.000000 + 7.00 x_7  = 1.000000 + 10.00 x_8  = 1.000000 + 2.00 x_9  = 0.324675 + 2.00 x_10  = 1.000000 + 4.00 x_11  = 1.000000 + 5.00 x_12  = 0.467532 + 10.00 x_13  = 1.000000 + 8.00 x_14  = 0.000000 + 8.00 x_15  = 0.000000 + 4.00 x_16  = 1.000000 + 10.00 x_17  = 0.000000 + 9.00 x_18  = 0.000000 + 5.00 x_19  = 0.000000 + 4.00 x_20  = 1.000000 <= 54.00
C_2:	 8.00 x_1  = 0.000000 + 6.00 x_2  = 1.000000 + 6.00 x_3  = 0.000000 + 7.00 x_4  = 0.000000 + 1.00 x_5  = 1.000000 + 7.00 x_6  = 0.000000 + 6.00 x_7  = 1.000000 + 5.00 x_8  = 1.000000 + 8.00 x_9  = 0.324675 + 10.00 x_10  = 1.000000 + 10.00 x_11  = 1.000000 + 3.00 x_12  = 0.467532 + 10.00 x_13  = 1.000000 + 6.00 x_14  = 0.000000 + 4.00 x_15  = 0.000000 + 8.00 x_16  = 1.000000 + 10.00 x_17  = 0.000000 + 2.00 x_18  = 0.000000 + 7.00 x_19  = 0.000000 + 3.00 x_20  = 1.000000 <= 63.00
C_3:	 5.00 x_1  = 0.000000 + 3.00 x_2  = 1.000000 + 10.00 x_3  = 0.000000 + 6.00 x_4  = 0.000000 + 10.00 x_5  = 1.000000 + 7.00 x_6  = 0.000000 + 1.00 x_7  = 1.000000 + 2.00 x_8  = 1.000000 + 7.00 x_9  = 0.324675 + 5.00 x_10  = 1.000000 + 5.00 x_11  = 1.000000 + 6.00 x_12  = 0.467532 + 10.00 x_13  = 1.000000 + 3.00 x_14  = 0.000000 + 3.00 x_15  = 0.000000 + 3.00 x_16  = 1.000000 + 9.00 x_17  = 0.000000 + 10.00 x_18  = 0.000000 + 7.00 x_19  = 0.000000 + 9.00 x_20  = 1.000000 <= 60.00
C_4:	 10.00 x_1  = 0.000000 + 6.00 x_2  = 1.000000 + 3.00 x_3  = 0.000000 + 9.00 x_4  = 0.000000 + 1.00 x_5  = 1.000000 + 8.00 x_6  = 0.000000 + 8.00 x_7  = 1.000000 + 2.00 x_8  = 1.000000 + 9.00 x_9  = 0.324675 + 5.00 x_10  = 1.000000 + 7.00 x_11  = 1.000000 + 5.00 x_12  = 0.467532 + 7.00 x_13  = 1.000000 + 8.00 x_14  = 0.000000 + 2.00 x_15  = 0.000000 + 8.00 x_16  = 1.000000 + 6.00 x_17  = 0.000000 + 2.00 x_18  = 0.000000 + 9.00 x_19  = 0.000000 + 2.00 x_20  = 1.000000 <= 58.00
C_5:	 6.00 x_1  = 0.000000 + 6.00 x_2  = 1.000000 + 8.00 x_3  = 0.000000 + 7.00 x_4  = 0.000000 + 8.00 x_5  = 1.000000 + 2.00 x_6  = 0.000000 + 9.00 x_7  = 1.000000 + 8.00 x_8  = 1.000000 + 1.00 x_9  = 0.324675 + 7.00 x_10  = 1.000000 + 6.00 x_11  = 1.000000 + 10.00 x_12  = 0.467532 + 2.00 x_13  = 1.000000 + 10.00 x_14  = 0.000000 + 1.00 x_15  = 0.000000 + 5.00 x_16  = 1.000000 + 7.00 x_17  = 0.000000 + 8.00 x_18  = 0.000000 + 8.00 x_19  = 0.000000 + 7.00 x_20  = 1.000000 <= 63.00
Solution initial: 78.025974 
Number Constraints Used in Cover:5
GRASP Method!
Number cuts repeat: 0
value: 78.025974
Number Constraints Used in Cover:7
GRASP Method!
Number cuts repeat: 0
value: 78.025974
Number Constraints Used in Cover:9
GRASP Method!
Number cuts repeat: 0
value: 78.025974
Number Constraints Used in Cover:11
GRASP Method!
Number cuts repeat: 0
value: 78.025974
Number Constraints Used in Cover:12
GRASP Method!
Number cuts repeat: 0
value: 78.025974
Number Constraints Used in Cover:14
GRASP Method!
Number cuts repeat: 0
value: 78.025974
Number Constraints Used in Cover:16
GRASP Method!
Number cuts repeat: 0
value: 78.025974
Number Constraints Used in Cover:18
GRASP Method!
Number cuts repeat: 0
value: 78.025974
Number Constraints Used in Cover:18
GRASP Method!
Number cuts repeat: 0
value: 78.025974
Number Constraints Used in Cover:20
GRASP Method!
Number cuts repeat: 0
value: 78.025974
Number Constraints Used in Cover:22
GRASP Method!
Number cuts repeat: 0
value: 78.025974
Number Constraints Used in Cover:24
GRASP Method!
Number cuts repeat: 0
value: 78.025974
Number Constraints Used in Cover:24
GRASP Method!
Number cuts repeat: 0
value: 78.025974
Number Constraints Used in Cover:26
GRASP Method!
Number cuts repeat: 0
value: 78.025974
Number Constraints Used in Cover:28
GRASP Method!
Number cuts repeat: 0
value: 78.025974
Number Constraints Used in Cover:30
GRASP Method!
Number cuts repeat: 0
value: 78.025974
Number Constraints Used in Cover:32
GRASP Method!
Number cuts repeat: 0
value: 78.025974
Number Constraints Used in Cover:34
GRASP Method!
Number cuts repeat: 0
value: 78.025974
Number Constraints Used in Cover:36
GRASP Method!
Number cuts repeat: 0
value: 78.025974
Number Constraints Used in Cover:38
GRASP Method!
Number cuts repeat: 0
value: 78.025974
Number Constraints Used in Cover:40
GRASP Method!
Number cuts repeat: 0
value: 78.025974
Number Constraints Used in Cover:42
GRASP Method!
Number cuts repeat: 0
value: 78.025974
Number Constraints Used in Cover:44
GRASP Method!
Number cuts repeat: 0
value: 78.025974
Number Constraints Used in Cover:46
GRASP Method!
Number cuts repeat: 0
value: 78.025974
Number Constraints Used in Cover:48
GRASP Method!
Number cuts repeat: 0
value: 78.025974
Number Constraints Used in Cover:50
GRASP Method!
Number cuts repeat: 0
value: 78.025974
Number Constraints Used in Cover:52
GRASP Method!
Number cuts repeat: 0
value: 78.025974
Number Constraints Used in Cover:54
GRASP Method!
Number cuts repeat: 0
value: 78.025974
Number Constraints Used in Cover:56
GRASP Method!
Number cuts repeat: 0
value: 78.025974
Number Constraints Used in Cover:58
GRASP Method!
Number cuts repeat: 0
value: 78.025974
Number Constraints Used in Cover:60
GRASP Method!
Number cuts repeat: 0
value: 78.025974
Number Constraints Used in Cover:62
GRASP Method!
Number cuts repeat: 0
value: 78.025974
Number Constraints Used in Cover:64
GRASP Method!
Number cuts repeat: 0
value: 78.025974
Number Constraints Used in Cover:66
GRASP Method!
Number cuts repeat: 0
value: 78.025974
Number Constraints Used in Cover:68
GRASP Method!
Number cuts repeat: 0
value: 78.025974
Number Constraints Used in Cover:70
GRASP Method!
Number cuts repeat: 0
value: 78.025974
Number Constraints Used in Cover:72
GRASP Method!
Number cuts repeat: 0
value: 78.025974
Number Constraints Used in Cover:74
GRASP Method!
Number cuts repeat: 0
value: 78.025974
Number Constraints Used in Cover:76
GRASP Method!
Number cuts repeat: 0
value: 78.025974
Number Constraints Used in Cover:78
GRASP Method!
Number cuts repeat: 0
value: 78.025974
Number Constraints Used in Cover:80
GRASP Method!
Number cuts repeat: 0
value: 78.025974
Number Constraints Used in Cover:82
GRASP Method!
Number cuts repeat: 0
value: 78.025974
Number Constraints Used in Cover:84
GRASP Method!
Number cuts repeat: 0
value: 78.025974
Number Constraints Used in Cover:86
GRASP Method!
Number cuts repeat: 0
value: 78.025974
Number Constraints Used in Cover:88
GRASP Method!
Number cuts repeat: 0
value: 78.025974
Number Constraints Used in Cover:90
GRASP Method!
Number cuts repeat: 0
value: 78.025974
Number Constraints Used in Cover:92
GRASP Method!
Number cuts repeat: 0
value: 78.025974
Number Constraints Used in Cover:94
GRASP Method!
Number cuts repeat: 0
value: 78.025974
Number Constraints Used in Cover:96
GRASP Method!
Number cuts repeat: 0
value: 78.025974
Number Constraints Used in Cover:98
GRASP Method!
Number cuts repeat: 0
value: 78.025974
Number Constraints Used in Cover:100
GRASP Method!
Number cuts repeat: 0
value: 78.025974
Number Constraints Used in Cover:102
GRASP Method!
Number cuts repeat: 0
value: 78.025974
Number Constraints Used in Cover:104
GRASP Method!
Number cuts repeat: 0
value: 78.025974
Number Constraints Used in Cover:106
GRASP Method!
Number cuts repeat: 0
value: 78.025974
Number Constraints Used in Cover:108
GRASP Method!
Number cuts repeat: 0
value: 78.025974
Number Constraints Used in Cover:110
GRASP Method!
Number cuts repeat: 0
value: 78.025974
Number Constraints Used in Cover:112
GRASP Method!
Number cuts repeat: 0
value: 78.025974
Number Constraints Used in Cover:114
GRASP Method!
Number cuts repeat: 0
value: 78.025974
Number Constraints Used in Cover:116
GRASP Method!
Number cuts repeat: 0
value: 78.025974
Number Constraints Used in Cover:118
GRASP Method!
Number cuts repeat: 0
value: 78.025974
Number Constraints Used in Cover:120
GRASP Method!
Number cuts repeat: 0
value: 78.025974
Number Constraints Used in Cover:122
GRASP Method!
Number cuts repeat: 0
value: 78.025974
Number Constraints Used in Cover:124
GRASP Method!
Number cuts repeat: 0
value: 78.025974
Number Constraints Used in Cover:126
GRASP Method!
Number cuts repeat: 0
value: 78.025974
Number Constraints Used in Cover:128
GRASP Method!
Number cuts repeat: 0
value: 78.025974
Number Constraints Used in Cover:130
GRASP Method!
Number cuts repeat: 0
value: 78.025974
Number Constraints Used in Cover:132
GRASP Method!
Number cuts repeat: 0
value: 78.025974
Number Constraints Used in Cover:134
GRASP Method!
Number cuts repeat: 0
value: 78.025974
Number Constraints Used in Cover:136
GRASP Method!
Number cuts repeat: 0
value: 78.025974
Number Constraints Used in Cover:138
GRASP Method!
Number cuts repeat: 0
value: 78.025974
Number Constraints Used in Cover:140
GRASP Method!
Number cuts repeat: 0
value: 78.025974
Number Constraints Used in Cover:142
GRASP Method!
Number cuts repeat: 0
value: 78.025974
Number Constraints Used in Cover:144
GRASP Method!
Number cuts repeat: 0
value: 78.025974
Number Constraints Used in Cover:146
GRASP Method!
Number cuts repeat: 0
value: 78.025974
Number Constraints Used in Cover:148
GRASP Method!
Number cuts repeat: 0
value: 78.025974
Number Constraints Used in Cover:150
GRASP Method!
Number cuts repeat: 0
value: 78.025974
Number Constraints Used in Cover:152
GRASP Method!
Number cuts repeat: 0
value: 78.025974
Number Constraints Used in Cover:154
GRASP Method!
Number cuts repeat: 0
value: 78.025974
Number Constraints Used in Cover:156
GRASP Method!
Number cuts repeat: 0
value: 78.025974
Number Constraints Used in Cover:158
GRASP Method!
Number cuts repeat: 0
value: 78.025974
Number Constraints Used in Cover:160
GRASP Method!
Number cuts repeat: 0
value: 78.025974
Number Constraints Used in Cover:162
GRASP Method!
Number cuts repeat: 0
value: 78.025974
Number Constraints Used in Cover:164
GRASP Method!
Number cuts repeat: 0
value: 78.025974
Number Constraints Used in Cover:166
GRASP Method!
Number cuts repeat: 0
value: 78.025974
Number Constraints Used in Cover:168
GRASP Method!
Number cuts repeat: 0
value: 78.025974
Number Constraints Used in Cover:170
GRASP Method!
Number cuts repeat: 0
value: 78.025974
Number Constraints Used in Cover:172
GRASP Method!
Number cuts repeat: 0
value: 78.025974
Number Constraints Used in Cover:174
GRASP Method!
Number cuts repeat: 0
value: 78.025974
Number Constraints Used in Cover:176
GRASP Method!
Number cuts repeat: 0
value: 78.025974
Number Constraints Used in Cover:178
GRASP Method!
Number cuts repeat: 0
value: 78.025974
Number Constraints Used in Cover:180
GRASP Method!
Number cuts repeat: 0
value: 78.025974
Number Constraints Used in Cover:182
GRASP Method!
Number cuts repeat: 0
value: 78.025974
Number Constraints Used in Cover:184
GRASP Method!
Number cuts repeat: 0
value: 78.025974
Number Constraints Used in Cover:186
GRASP Method!
Number cuts repeat: 0
value: 78.025974
Number Constraints Used in Cover:188
GRASP Method!
Number cuts repeat: 0
value: 78.025974
Number Constraints Used in Cover:190
GRASP Method!
Number cuts repeat: 0
value: 78.025974
Number Constraints Used in Cover:192
GRASP Method!
Number cuts repeat: 0
value: 78.025974
Number Constraints Used in Cover:194
GRASP Method!
Number cuts repeat: 0
value: 78.025974
Number Constraints Used in Cover:196
GRASP Method!
Number cuts repeat: 0
value: 78.025974
Number Constraints Used in Cover:198
GRASP Method!
Number cuts repeat: 0
value: 78.025974
Number Constraints Used in Cover:200
GRASP Method!
Number cuts repeat: 0
value: 78.025974
Number Constraints Used in Cover:202
GRASP Method!
Number cuts repeat: 0
value: 78.025974
Number Constraints Used in Cover:204
GRASP Method!
Number cuts repeat: 0
value: 78.025974
Number Constraints Used in Cover:206
GRASP Method!
Number cuts repeat: 0
value: 78.025974
Number Constraints Used in Cover:208
GRASP Method!
Number cuts repeat: 0
value: 78.025974
Number Constraints Used in Cover:210
GRASP Method!
Number cuts repeat: 0
value: 78.025974
Number Constraints Used in Cover:212
GRASP Method!
Number cuts repeat: 0
value: 78.025974
Number Constraints Used in Cover:214
GRASP Method!
Number cuts repeat: 0
value: 78.025974
Number Constraints Used in Cover:216
GRASP Method!
Number cuts repeat: 0
value: 78.025974
Number Constraints Used in Cover:218
GRASP Method!
Number cuts repeat: 0
value: 78.025974
Number Constraints Used in Cover:220
GRASP Method!
Number cuts repeat: 0
value: 78.025974
Number Constraints Used in Cover:222
GRASP Method!
Number cuts repeat: 0
value: 78.025974
Number Constraints Used in Cover:224
GRASP Method!
Number cuts repeat: 0
value: 78.025974
Number Constraints Used in Cover:226
GRASP Method!
Number cuts repeat: 0
value: 78.025974
Number Constraints Used in Cover:228
GRASP Method!
Number cuts repeat: 0
value: 78.025974
Number Constraints Used in Cover:229
GRASP Method!
Number cuts repeat: 0
value: 78.025974
Number Constraints Used in Cover:231
GRASP Method!
Number cuts repeat: 0
value: 78.025974
Number Constraints Used in Cover:233
GRASP Method!
Number cuts repeat: 0
value: 78.025974
Number Constraints Used in Cover:235
GRASP Method!
Number cuts repeat: 0
value: 78.025974
Number Constraints Used in Cover:237
GRASP Method!
Number cuts repeat: 0
value: 78.025974
Number Constraints Used in Cover:239
GRASP Method!
Number cuts repeat: 0
value: 78.025974
Number Constraints Used in Cover:241
GRASP Method!
Number cuts repeat: 0
value: 78.025974
Number Constraints Used in Cover:243
GRASP Method!
Number cuts repeat: 0
value: 78.025974
Number Constraints Used in Cover:245
GRASP Method!
Number cuts repeat: 0
value: 78.025974
Number Constraints Used in Cover:247
GRASP Method!
Number cuts repeat: 0
value: 78.025974
Number Constraints Used in Cover:249
GRASP Method!
Number cuts repeat: 0
value: 78.025974
Number Constraints Used in Cover:251
GRASP Method!
Number cuts repeat: 0
value: 78.025974
Number Constraints Used in Cover:253
GRASP Method!
Number cuts repeat: 0
value: 78.025974
Number Constraints Used in Cover:255
GRASP Method!
Number cuts repeat: 0
value: 78.025974
Number Constraints Used in Cover:257
GRASP Method!
Number cuts repeat: 0
value: 78.025974
Number Constraints Used in Cover:259
GRASP Method!
Number cuts repeat: 0
value: 78.025974
Number Constraints Used in Cover:261
GRASP Method!
Number cuts repeat: 0
value: 78.025974
Number Constraints Used in Cover:264
GRASP Method!
Number cuts repeat: 0
value: 78.025974
Number Constraints Used in Cover:267
GRASP Method!
Number cuts repeat: 0
value: 78.025974
Number Constraints Used in Cover:270
GRASP Method!
Number cuts repeat: 0
value: 78.025974
Number Constraints Used in Cover:273
GRASP Method!
Number cuts repeat: 0
value: 78.025974
Number Constraints Used in Cover:276
GRASP Method!
Number cuts repeat: 0
value: 78.025974
Number Constraints Used in Cover:279
GRASP Method!
Number cuts repeat: 0
value: 78.025974
Number Constraints Used in Cover:282
GRASP Method!
Number cuts repeat: 0
value: 78.025974
Number Constraints Used in Cover:285
GRASP Method!
Number cuts repeat: 0
value: 78.025974
Number Constraints Used in Cover:288
GRASP Method!
Number cuts repeat: 0
value: 78.025974
Number Constraints Used in Cover:291
GRASP Method!
Number cuts repeat: 0
value: 78.025974
Number Constraints Used in Cover:294
GRASP Method!
Number cuts repeat: 0
value: 78.025974
Number Constraints Used in Cover:297
GRASP Method!
Number cuts repeat: 0
value: 78.025974
Number Constraints Used in Cover:300
GRASP Method!
Number cuts repeat: 0
value: 78.025974
Number Constraints Used in Cover:303
GRASP Method!
Number cuts repeat: 0
value: 78.025974
Number Constraints Used in Cover:306
GRASP Method!
Number cuts repeat: 0
value: 78.025974
Number Constraints Used in Cover:309
GRASP Method!
Number cuts repeat: 0
value: 78.025974
Number Constraints Used in Cover:312
GRASP Method!
Number cuts repeat: 0
value: 78.025974
Number Constraints Used in Cover:315
GRASP Method!
Number cuts repeat: 0
value: 78.025974
Number Constraints Used in Cover:318
GRASP Method!
Number cuts repeat: 0
value: 78.025974
Number Constraints Used in Cover:321
GRASP Method!
Number cuts repeat: 0
value: 78.025974
Number Constraints Used in Cover:324
GRASP Method!
Number cuts repeat: 0
value: 78.025974
Number Constraints Used in Cover:327
GRASP Method!
Number cuts repeat: 0
value: 78.025974
Number Constraints Used in Cover:330
GRASP Method!
Number cuts repeat: 0
value: 78.025974
Number Constraints Used in Cover:333
GRASP Method!
Number cuts repeat: 0
value: 78.025974
Number Constraints Used in Cover:336
GRASP Method!
Number cuts repeat: 0
value: 78.025974
Number Constraints Used in Cover:339
GRASP Method!
Number cuts repeat: 0
value: 78.025974
Number Constraints Used in Cover:341
GRASP Method!
Number cuts repeat: 0
value: 78.025974
Number Constraints Used in Cover:344
GRASP Method!
Number cuts repeat: 0
value: 78.025974
Number Constraints Used in Cover:347
GRASP Method!
Number cuts repeat: 0
value: 78.025974
Number Constraints Used in Cover:350
GRASP Method!
Number cuts repeat: 0
value: 78.025974
Number Constraints Used in Cover:353
GRASP Method!
Number cuts repeat: 0
value: 78.025974
Number Constraints Used in Cover:356
GRASP Method!
Number cuts repeat: 0
value: 78.025974
Number Constraints Used in Cover:359
GRASP Method!
Number cuts repeat: 0
value: 78.025974
Number Constraints Used in Cover:362
GRASP Method!
Number cuts repeat: 0
value: 78.025974
Number Constraints Used in Cover:365
GRASP Method!
Number cuts repeat: 0
value: 78.025974
Number Constraints Used in Cover:368
GRASP Method!
Number cuts repeat: 0
value: 78.025974
Number Constraints Used in Cover:371
GRASP Method!
Number cuts repeat: 0
value: 78.025974
Number Constraints Used in Cover:373
GRASP Method!
Number cuts repeat: 0
value: 78.025974
Number Constraints Used in Cover:376
GRASP Method!
Number cuts repeat: 0
value: 78.025974
Number Constraints Used in Cover:379
GRASP Method!
Number cuts repeat: 0
value: 78.025974
Number Constraints Used in Cover:382
GRASP Method!
Number cuts repeat: 0
value: 78.025974
Number Constraints Used in Cover:385
GRASP Method!
Number cuts repeat: 0
value: 78.025974
Number Constraints Used in Cover:388
GRASP Method!
Number cuts repeat: 0
value: 78.025974
Number Constraints Used in Cover:391
GRASP Method!
Number cuts repeat: 0
value: 78.025974
Number Constraints Used in Cover:394
GRASP Method!
Number cuts repeat: 0
value: 78.025974
Number Constraints Used in Cover:397
GRASP Method!
Number cuts repeat: 0
value: 78.025974
Number Constraints Used in Cover:400
GRASP Method!
Number cuts repeat: 0
value: 78.025974
Number Constraints Used in Cover:403
GRASP Method!
Number cuts repeat: 0
value: 78.025974
Number Constraints Used in Cover:406
GRASP Method!
Number cuts repeat: 0
value: 78.025974
Number Constraints Used in Cover:409
GRASP Method!
Number cuts repeat: 0
value: 78.025974
Number Constraints Used in Cover:412
GRASP Method!
Number cuts repeat: 0
value: 78.025974
Number Constraints Used in Cover:414
GRASP Method!
Number cuts repeat: 0
value: 78.025974
Number Constraints Used in Cover:417
GRASP Method!
Number cuts repeat: 0
value: 78.025974
Number Constraints Used in Cover:419
GRASP Method!
Number cuts repeat: 0
value: 78.025974
Number Constraints Used in Cover:422
GRASP Method!
Number cuts repeat: 0
value: 78.025974
Number Constraints Used in Cover:424
GRASP Method!
Number cuts repeat: 0
value: 78.025974
Number Constraints Used in Cover:427
GRASP Method!
Number cuts repeat: 0
value: 78.025974
Number Constraints Used in Cover:430
GRASP Method!
Number cuts repeat: 0
value: 78.025974
Number Constraints Used in Cover:432
GRASP Method!
Number cuts repeat: 0
value: 78.025974
Number Constraints Used in Cover:435
GRASP Method!
Number cuts repeat: 0
value: 78.025974
Number Constraints Used in Cover:438
GRASP Method!
Number cuts repeat: 0
value: 78.025974
Number Constraints Used in Cover:441
GRASP Method!
Number cuts repeat: 0
value: 78.025974
Number Constraints Used in Cover:444
GRASP Method!
Number cuts repeat: 0
value: 78.025974
Number Constraints Used in Cover:447
GRASP Method!
Number cuts repeat: 0
value: 78.025974
Number Constraints Used in Cover:450
GRASP Method!
Number cuts repeat: 0
value: 78.025974
Number Constraints Used in Cover:453
GRASP Method!
Number cuts repeat: 0
value: 78.025974
Number Constraints Used in Cover:456
GRASP Method!
Number cuts repeat: 0
value: 78.025974
Number Constraints Used in Cover:459
GRASP Method!
Number cuts repeat: 0
value: 78.025974
Number Constraints Used in Cover:462
GRASP Method!
Number cuts repeat: 0
value: 78.025974
Number Constraints Used in Cover:465
GRASP Method!
Number cuts repeat: 0
value: 78.025974
Number Constraints Used in Cover:468
GRASP Method!
Number cuts repeat: 0
value: 78.025974
Number Constraints Used in Cover:471
GRASP Method!
Number cuts repeat: 0
value: 78.025974
Number Constraints Used in Cover:474
GRASP Method!
Number cuts repeat: 0
value: 78.025974
Number Constraints Used in Cover:477
GRASP Method!
Number cuts repeat: 0
value: 78.025974
Number Constraints Used in Cover:480
GRASP Method!
Number cuts repeat: 0
value: 78.025974
Number Constraints Used in Cover:483
GRASP Method!
Number cuts repeat: 0
value: 78.025974
Number Constraints Used in Cover:486
GRASP Method!
Number cuts repeat: 0
value: 78.025974
Number Constraints Used in Cover:489
GRASP Method!
Number cuts repeat: 0
value: 78.025974
Number Constraints Used in Cover:492
GRASP Method!
Number cuts repeat: 0
value: 78.025974
Number Constraints Used in Cover:495
GRASP Method!
Number cuts repeat: 0
value: 78.025974
Number Constraints Used in Cover:498
GRASP Method!
Number cuts repeat: 0
value: 78.025974
Number Constraints Used in Cover:501
GRASP Method!
Number cuts repeat: 0
value: 78.025974
Number Constraints Used in Cover:504
GRASP Method!
Number cuts repeat: 0
value: 78.025974
Number Constraints Used in Cover:507
GRASP Method!
Number cuts repeat: 0
value: 78.025974
Number Constraints Used in Cover:510
GRASP Method!
Number cuts repeat: 0
value: 78.025974
Number Constraints Used in Cover:513
GRASP Method!
Number cuts repeat: 0
value: 78.025974
Number Constraints Used in Cover:516
GRASP Method!
Number cuts repeat: 0
value: 78.025974
Number Constraints Used in Cover:519
GRASP Method!
Number cuts repeat: 0
value: 78.025974
Number Constraints Used in Cover:522
GRASP Method!
Number cuts repeat: 0
value: 78.025974
Number Constraints Used in Cover:525
GRASP Method!
Number cuts repeat: 0
value: 78.025974
Number Constraints Used in Cover:528
GRASP Method!
Number cuts repeat: 0
value: 78.025974
Number Constraints Used in Cover:531
GRASP Method!
Number cuts repeat: 0
value: 78.025974
Number Constraints Used in Cover:534
GRASP Method!
Number cuts repeat: 0
value: 78.025974
Number Constraints Used in Cover:537
GRASP Method!
Number cuts repeat: 0
value: 78.025974
Number Constraints Used in Cover:540
GRASP Method!
Number cuts repeat: 0
value: 78.025974
Number Constraints Used in Cover:543
GRASP Method!
Number cuts repeat: 0
value: 78.025974
Number Constraints Used in Cover:546
GRASP Method!
Number cuts repeat: 0
value: 78.025974
Number Constraints Used in Cover:549
GRASP Method!
Number cuts repeat: 0
value: 78.025974
Number Constraints Used in Cover:552
GRASP Method!
Number cuts repeat: 0
value: 78.025974
Number Constraints Used in Cover:555
GRASP Method!
Number cuts repeat: 0
value: 78.025974
Number Constraints Used in Cover:558
GRASP Method!
Number cuts repeat: 0
value: 78.025974
Number Constraints Used in Cover:561
GRASP Method!
Number cuts repeat: 0
value: 78.025974
Number Constraints Used in Cover:564
GRASP Method!
Number cuts repeat: 0
value: 78.025974
Number Constraints Used in Cover:567
GRASP Method!
Number cuts repeat: 0
value: 78.025974
Number Constraints Used in Cover:570
GRASP Method!
Number cuts repeat: 0
value: 78.025974
Number Constraints Used in Cover:572
GRASP Method!
Number cuts repeat: 0
value: 78.025974
Number Constraints Used in Cover:575
GRASP Method!
Number cuts repeat: 0
value: 78.025974
Number Constraints Used in Cover:578
GRASP Method!
Number cuts repeat: 0
value: 78.025974
Number Constraints Used in Cover:581
GRASP Method!
Number cuts repeat: 0
value: 78.025974
Number Cuts Final: 578
